p cnf 11 20
11 -10 5 0
-11 9 6 0
-11 8 -7 0
-11 -7 2 0
11 6 -5 0
-11 6 -4 0
11 -6 -1 0
-11 5 3 0
-10 9 -4 0
-10 -9 -1 0
-10 8 -4 0
-10 -4 -3 0
-9 6 3 0
-9 6 -2 0
-8 6 -5 0
-8 4 3 0
-8 -4 2 0
-6 -5 3 0
-5 -4 -3 0
-4 3 -1 0
